g3 0 1 0	# problem WFG9
 8 0 3 0 0	# vars, constraints, objectives, ranges, eqns
 0 3	# nonlinear constraints, objectives
 0 0	# network constraints: nonlinear, linear
 0 8 0	# nonlinear vars in constraints, objectives, both
 0 0 0 1	# linear network variables; functions; arith, flags
 0 0 0 0 0	# discrete variables: binary, integer, nonlinear (b,c,o)
 0 24	# nonzeros in Jacobian, gradients
 0 0	# max name lengths: constraints, variables
 0 0 37 0 3	# common exprs: b,c,o,c1,o1
V8 1 0
0 0.5
n0
V9 1 0
1 0.25
n0
V10 1 0
2 0.16666666666666666
n0
V11 1 0
3 0.125
n0
V12 1 0
4 0.1
n0
V13 1 0
5 0.08333333333333333
n0
V14 1 0
6 0.07142857142857142
n0
V15 1 0
7 0.0625
n0
V16 0 0
o54
7
o2
n0.14285714285714285
v15
o2
n0.14285714285714285
v14
o2
n0.14285714285714285
v13
o2
n0.14285714285714285
v12
o2
n0.14285714285714285
v11
o2
n0.14285714285714285
v10
o2
n0.14285714285714285
v9
V17 0 0
o54
6
o2
n0.16666666666666666
v15
o2
n0.16666666666666666
v14
o2
n0.16666666666666666
v13
o2
n0.16666666666666666
v12
o2
n0.16666666666666666
v11
o2
n0.16666666666666666
v10
V18 0 0
o54
5
o2
n0.2
v15
o2
n0.2
v14
o2
n0.2
v13
o2
n0.2
v12
o2
n0.2
v11
V19 0 0
o54
4
o2
n0.25
v15
o2
n0.25
v14
o2
n0.25
v13
o2
n0.25
v12
V20 0 0
o54
3
o2
n0.3333333333333333
v15
o2
n0.3333333333333333
v14
o2
n0.3333333333333333
v13
V21 0 0
o0
o2
n0.5
v15
o2
n0.5
v14
V22 0 0
v15
V23 0 0
o5
v8
o0
n0.02
o2
n49.98
o1
n0.0196078431372549
o2
o0
n1
o2
n-2
v16
o15
o0
n0.0196078431372549
o13
o1
n0.5
v16
V24 0 0
o5
v9
o0
n0.02
o2
n49.98
o1
n0.0196078431372549
o2
o0
n1
o2
n-2
v17
o15
o0
n0.0196078431372549
o13
o1
n0.5
v17
V25 0 0
o5
v10
o0
n0.02
o2
n49.98
o1
n0.0196078431372549
o2
o0
n1
o2
n-2
v18
o15
o0
n0.0196078431372549
o13
o1
n0.5
v18
V26 0 0
o5
v11
o0
n0.02
o2
n49.98
o1
n0.0196078431372549
o2
o0
n1
o2
n-2
v19
o15
o0
n0.0196078431372549
o13
o1
n0.5
v19
V27 0 0
o5
v12
o0
n0.02
o2
n49.98
o1
n0.0196078431372549
o2
o0
n1
o2
n-2
v20
o15
o0
n0.0196078431372549
o13
o1
n0.5
v20
V28 0 0
o5
v13
o0
n0.02
o2
n49.98
o1
n0.0196078431372549
o2
o0
n1
o2
n-2
v21
o15
o0
n0.0196078431372549
o13
o1
n0.5
v21
V29 0 0
o5
v14
o0
n0.02
o2
n49.98
o1
n0.0196078431372549
o2
o0
n1
o2
n-2
v22
o15
o0
n0.0196078431372549
o13
o1
n0.5
v22
V30 0 0
v15
V31 0 0
o0
o2
o1
o15
o1
v23
n0.35
n0.001
o54
3
o3
o2
n349.94999999999993
o13
o0
n0.001
o1
v23
n0.35
n0.349
o3
o2
n649.95
o13
o1
n0.351
v23
n0.649
n1000
n1
V32 0 0
o0
o2
o1
o15
o1
v24
n0.35
n0.001
o54
3
o3
o2
n349.94999999999993
o13
o0
n0.001
o1
v24
n0.35
n0.349
o3
o2
n649.95
o13
o1
n0.351
v24
n0.649
n1000
n1
V33 0 0
o0
o2
o1
o15
o1
v25
n0.35
n0.001
o54
3
o3
o2
n349.94999999999993
o13
o0
n0.001
o1
v25
n0.35
n0.349
o3
o2
n649.95
o13
o1
n0.351
v25
n0.649
n1000
n1
V34 0 0
o0
o2
o1
o15
o1
v26
n0.35
n0.001
o54
3
o3
o2
n349.94999999999993
o13
o0
n0.001
o1
v26
n0.35
n0.349
o3
o2
n649.95
o13
o1
n0.351
v26
n0.649
n1000
n1
V35 0 0
o54
3
o2
n0.010309278350515464
o46
o2
n383.27430373795477
o1
n0.5
o3
o15
o1
v27
n0.35
o2
n2
o0
n0.35
o13
o1
n0.35
v27
o2
n3.917525773195876
o5
o3
o15
o1
v27
n0.35
o2
n2
o0
n0.35
o13
o1
n0.35
v27
n2
n0.010309278350515464
V36 0 0
o54
3
o2
n0.010309278350515464
o46
o2
n383.27430373795477
o1
n0.5
o3
o15
o1
v28
n0.35
o2
n2
o0
n0.35
o13
o1
n0.35
v28
o2
n3.917525773195876
o5
o3
o15
o1
v28
n0.35
o2
n2
o0
n0.35
o13
o1
n0.35
v28
n2
n0.010309278350515464
V37 0 0
o54
3
o2
n0.010309278350515464
o46
o2
n383.27430373795477
o1
n0.5
o3
o15
o1
v29
n0.35
o2
n2
o0
n0.35
o13
o1
n0.35
v29
o2
n3.917525773195876
o5
o3
o15
o1
v29
n0.35
o2
n2
o0
n0.35
o13
o1
n0.35
v29
n2
n0.010309278350515464
V38 0 0
o54
3
o2
n0.010309278350515464
o46
o2
n383.27430373795477
o1
n0.5
o3
o15
o1
v30
n0.35
o2
n2
o0
n0.35
o13
o1
n0.35
v30
o2
n3.917525773195876
o5
o3
o15
o1
v30
n0.35
o2
n2
o0
n0.35
o13
o1
n0.35
v30
n2
n0.010309278350515464
V39 0 0
o54
4
o2
n0.3333333333333333
v32
o2
n0.3333333333333333
v31
o2
n0.3333333333333333
o15
o1
v31
v32
o2
n0.3333333333333333
o15
o1
v32
v31
V40 0 0
o54
4
o2
n0.3333333333333333
v34
o2
n0.3333333333333333
v33
o2
n0.3333333333333333
o15
o1
v33
v34
o2
n0.3333333333333333
o15
o1
v34
v33
V41 0 0
o54
16
o2
n0.1
v38
o2
n0.1
v37
o2
n0.1
v36
o2
n0.1
v35
o2
n0.1
o15
o1
v35
v36
o2
n0.1
o15
o1
v35
v37
o2
n0.1
o15
o1
v35
v38
o2
n0.1
o15
o1
v36
v37
o2
n0.1
o15
o1
v36
v38
o2
n0.1
o15
o1
v36
v35
o2
n0.1
o15
o1
v37
v38
o2
n0.1
o15
o1
v37
v35
o2
n0.1
o15
o1
v37
v36
o2
n0.1
o15
o1
v38
v35
o2
n0.1
o15
o1
v38
v36
o2
n0.1
o15
o1
v38
v37
V42 0 0
o0
o2
o12
2
n1
v41
o1
v39
n0.5
n0.5
V43 0 0
o0
o2
o12
2
n1
v41
o1
v40
n0.5
n0.5
V44 0 0
v41
V45 0 1
o2
o41
o2
n1.5707963267948966
v42
o41
o2
n1.5707963267948966
v43
O0 0
o0
o2
n2
v45
v44
V46 0 2
o2
o41
o2
n1.5707963267948966
v42
o46
o2
n1.5707963267948966
v43
O1 0
o0
o2
n4
v46
v44
V47 0 3
o46
o2
n1.5707963267948966
v42
O2 0
o0
o2
n6
v47
v44
b
0 0 2
0 0 4
0 0 6
0 0 8
0 0 10
0 0 12
0 0 14
0 0 16
k7
0
0
0
0
0
0
0
G0 8
0 0
1 0
2 0
3 0
4 0
5 0
6 0
7 0
G1 8
0 0
1 0
2 0
3 0
4 0
5 0
6 0
7 0
G2 8
0 0
1 0
2 0
3 0
4 0
5 0
6 0
7 0
